GLPSOL--GLPK LP/MIP Solver 5.0
Parameter(s) specified in the command line:
 --lp ../modeles/10_129.lp --log 10_129.log
Reading problem data from '../modeles/10_129.lp'...
1331 rows, 2600 columns, 9080 non-zeros
1290 integer variables, all of which are binary
3947 lines were read
GLPK Integer Optimizer 5.0
1331 rows, 2600 columns, 9080 non-zeros
1290 integer variables, all of which are binary
Preprocessing...
1260 constraint coefficient(s) were reduced
1331 rows, 2590 columns, 9070 non-zeros
1290 integer variables, all of which are binary
Scaling...
 A: min|aij| =  2.404e-04  max|aij| =  4.000e+00  ratio =  1.664e+04
GM: min|aij| =  8.805e-02  max|aij| =  1.136e+01  ratio =  1.290e+02
EQ: min|aij| =  7.752e-03  max|aij| =  1.000e+00  ratio =  1.290e+02
2N: min|aij| =  7.692e-03  max|aij| =  1.769e+00  ratio =  2.299e+02
Constructing initial basis...
Size of triangular part is 1331
Solving LP relaxation...
GLPK Simplex Optimizer 5.0
1331 rows, 2590 columns, 9070 non-zeros
      0: obj =   2.000000000e+01 inf =   4.950e+01 (21)
    109: obj =   4.988281250e-01 inf =   0.000e+00 (0)
*   380: obj =  -3.159011628e+00 inf =   3.673e-16 (0)
OPTIMAL LP SOLUTION FOUND
Integer optimization begins...
Long-step dual simplex will be used
+   380: mip =     not found yet >=              -inf        (1; 0)
+   503: >>>>>  -3.159011628e+00 >=  -3.159011628e+00 < 0.1% (121; 0)
+   503: mip =  -3.159011628e+00 >=     tree is empty   0.0% (0; 241)
INTEGER OPTIMAL SOLUTION FOUND
Time used:   0.3 secs
Memory used: 3.8 Mb (3966366 bytes)
